# Cost: 189

# Tail Head Net
41 21 1
61 41 1
81 61 1
101 81 1
121 101 1
141 121 1
161 141 1
181 161 1
201 181 1
221 201 1
241 221 1
242 241 1
262 242 1
282 262 1
302 282 1
303 302 1
304 303 1
305 304 1
306 305 1
307 306 1
308 307 1
309 308 1
310 309 1
311 310 1
312 311 1
313 312 1
314 313 1
315 314 1
316 315 1
317 316 1
317 337 1
318 317 1
319 318 1
320 319 1
337 357 1
357 377 1
377 397 1
24 4 2
44 24 2
44 45 2
45 46 2
46 47 2
47 48 2
48 49 2
49 50 2
50 51 2
51 52 2
52 53 2
53 54 2
54 55 2
55 56 2
56 57 2
57 58 2
58 59 2
59 60 2
261 661 2
281 261 2
441 442 2
442 443 2
443 444 2
444 44 2
461 441 2
481 461 2
501 481 2
521 501 2
541 521 2
561 541 2
581 561 2
601 581 2
621 601 2
641 621 2
661 641 2
8 28 3
9 8 3
10 9 3
11 10 3
12 11 3
13 12 3
14 13 3
28 428 3
383 382 3
384 383 3
385 384 3
386 385 3
387 386 3
388 387 3
388 389 3
389 390 3
390 391 3
391 392 3
392 393 3
393 394 3
394 395 3
395 396 3
428 448 3
448 468 3
468 488 3
488 508 3
508 528 3
528 548 3
548 568 3
568 588 3
588 608 3
608 628 3
628 648 3
648 668 3
668 688 3
688 708 3
708 728 3
728 748 3
748 768 3
768 788 3
788 388 3
341 321 4
240 260 5
260 280 5
280 300 5
300 700 5
700 720 5
720 740 5
740 760 5
760 780 5
780 800 5
800 400 5
3 23 6
23 43 6
43 63 6
63 83 6
83 84 6
84 104 6
104 124 6
124 125 6
125 126 6
126 127 6
127 128 6
128 129 6
129 130 6
130 131 6
131 132 6
132 133 6
133 134 6
134 135 6
135 136 6
136 137 6
137 138 6
138 139 6
139 140 6
140 160 6
6 406 7
406 407 7
407 408 7
408 409 7
409 410 7
410 411 7
411 412 7
412 413 7
413 414 7
414 415 7
415 416 7
416 417 7
417 418 7
418 18 7
2 22 8
22 42 8
42 62 8
62 82 8
82 102 8
102 122 8
122 142 8
142 162 8
162 182 8
182 183 8
183 184 8
184 185 8
185 186 8
186 187 8
187 188 8
188 189 8
189 190 8
190 191 8
191 192 8
192 193 8
193 194 8
194 195 8
195 196 8
196 197 8
197 198 8
198 199 8
199 200 8
